2 1
3 1
4 3
5 1
5 3
5 4
6 1
6 2
7 1
7 2
7 6
8 1
8 2
8 5
8 6
8 7
9 3
9 4
9 5
10 1
10 2
10 6
10 7
10 8
11 3
11 4
11 5
11 9
12 1
12 3
12 4
12 5
12 7
12 8
12 9
13 1
13 2
13 6
13 7
13 8
13 10
14 1
14 2
14 6
14 7
14 8
14 10
14 13
15 3
15 4
15 5
15 9
15 11
15 12
16 1
16 3
16 4
16 5
16 7
16 8
16 9
16 11
16 12
16 14
16 15
17 3
17 4
17 5
17 9
17 11
17 15
17 16
18 3
18 4
18 5
18 9
18 11
18 12
18 15
18 16
18 17
19 1
19 2
19 5
19 6
19 7
19 8
19 10
19 12
19 13
19 14
19 16
20 1
20 2
20 6
20 7
20 8
20 10
20 13
20 14
20 19
21 3
21 4
21 5
21 9
21 11
21 12
21 15
21 16
21 17
21 18
22 2
22 6
22 7
22 8
22 10
22 13
22 14
22 19
22 20
23 1
23 2
23 6
23 7
23 8
23 10
23 12
23 13
23 14
23 19
23 20
23 22
24 1
24 2
24 6
24 7
24 8
24 10
24 13
24 14
24 19
24 20
24 22
24 23
25 1
25 2
25 6
25 7
25 8
25 10
25 13
25 14
25 19
25 20
25 22
25 23
25 24
26 3
26 4
26 5
26 9
26 11
26 12
26 15
26 16
26 17
26 18
26 21
27 1
27 2
27 5
27 6
27 7
27 8
27 10
27 12
27 13
27 14
27 16
27 19
27 20
27 22
27 23
27 24
27 25
28 1
28 2
28 6
28 7
28 8
28 10
28 12
28 13
28 14
28 16
28 19
28 20
28 22
28 23
28 24
28 25
28 27
29 1
29 3
29 4
29 5
29 9
29 11
29 12
29 15
29 16
29 17
29 18
29 21
29 26
30 1
30 2
30 6
30 7
30 8
30 10
30 13
30 14
30 19
30 20
30 22
30 23
30 24
30 25
30 27
30 28
31 1
31 2
31 3
31 5
31 6
31 7
31 8
31 10
31 12
31 13
31 14
31 15
31 16
31 19
31 20
31 23
31 27
31 28
31 29
32 1
32 3
32 4
32 5
32 7
32 8
32 9
32 11
32 12
32 15
32 16
32 18
32 19
32 21
32 26
32 27
32 28
32 29
32 31
33 1
33 3
33 4
33 5
33 7
33 8
33 9
33 11
33 12
33 14
33 15
33 16
33 18
33 19
33 21
33 26
33 27
33 28
33 29
33 31
33 32
34 1
34 3
34 5
34 7
34 8
34 9
34 11
34 12
34 14
34 16
34 17
34 19
34 27
34 28
34 31
34 32
34 33
35 1
35 3
35 4
35 5
35 7
35 8
35 9
35 11
35 12
35 14
35 15
35 16
35 17
35 18
35 19
35 21
35 26
35 27
35 28
35 29
35 31
35 32
35 33
35 34
36 2
36 6
36 7
36 8
36 10
36 13
36 14
36 19
36 20
36 22
36 23
36 24
36 25
36 27
36 28
36 30
37 1
37 3
37 4
37 5
37 8
37 9
37 12
37 15
37 16
37 18
37 19
37 21
37 26
37 27
37 29
37 31
37 32
37 33
37 34
37 35
38 1
38 2
38 6
38 7
38 8
38 10
38 13
38 14
38 19
38 20
38 22
38 23
38 24
38 25
38 27
38 28
38 30
38 36
39 1
39 2
39 3
39 5
39 6
39 7
39 8
39 10
39 12
39 13
39 14
39 16
39 19
39 20
39 22
39 23
39 24
39 25
39 27
39 28
39 30
39 31
39 32
39 33
39 34
39 35
39 36
39 37
39 38
40 3
40 4
40 5
40 9
40 11
40 12
40 15
40 16
40 17
40 18
40 21
40 26
40 29
40 32
40 33
40 35
40 37
41 1
41 2
41 6
41 7
41 8
41 10
41 13
41 14
41 19
41 20
41 22
41 23
41 24
41 25
41 27
41 28
41 30
41 36
41 38
41 39
42 3
42 4
42 5
42 9
42 11
42 12
42 15
42 16
42 17
42 18
42 21
42 26
42 29
42 32
42 33
42 34
42 35
42 37
42 40
43 1
43 2
43 5
43 6
43 7
43 8
43 10
43 12
43 13
43 14
43 16
43 19
43 20
43 22
43 23
43 24
43 25
43 27
43 28
43 30
43 31
43 32
43 33
43 34
43 35
43 36
43 37
43 38
43 39
43 41
44 1
44 2
44 5
44 6
44 7
44 8
44 10
44 12
44 13
44 16
44 19
44 23
44 27
44 28
44 29
44 31
44 32
44 33
44 35
44 37
44 39
44 43
45 1
45 2
45 6
45 7
45 8
45 10
45 13
45 14
45 16
45 19
45 20
45 22
45 23
45 24
45 25
45 27
45 28
45 30
45 31
45 33
45 36
45 38
45 39
45 41
45 43
45 44
46 1
46 2
46 6
46 7
46 8
46 10
46 13
46 14
46 19
46 20
46 22
46 23
46 24
46 25
46 27
46 28
46 30
46 36
46 38
46 39
46 41
46 43
46 45
47 1
47 3
47 4
47 5
47 6
47 8
47 9
47 12
47 15
47 16
47 18
47 19
47 21
47 23
47 26
47 27
47 28
47 29
47 31
47 32
47 33
47 34
47 35
47 37
47 39
47 40
47 43
47 44
48 1
48 3
48 4
48 5
48 9
48 11
48 12
48 15
48 16
48 17
48 18
48 21
48 26
48 27
48 29
48 31
48 32
48 33
48 34
48 35
48 37
48 39
48 40
48 42
48 44
48 47
49 3
49 4
49 5
49 9
49 11
49 12
49 15
49 16
49 17
49 18
49 21
49 26
49 29
49 32
49 33
49 34
49 35
49 37
49 40
49 42
49 48
50 3
50 4
50 5
50 9
50 11
50 15
50 16
50 17
50 18
50 21
50 26
50 29
50 32
50 33
50 34
50 35
50 40
50 42
50 48
50 49
51 1
51 3
51 5
51 7
51 8
51 12
51 14
51 16
51 19
51 27
51 28
51 31
51 32
51 33
51 34
51 35
51 37
51 39
51 42
51 43
51 44
51 45
51 47
51 48
51 50
52 1
52 2
52 6
52 7
52 8
52 10
52 12
52 13
52 14
52 16
52 19
52 20
52 22
52 23
52 24
52 25
52 27
52 28
52 30
52 31
52 32
52 33
52 34
52 35
52 36
52 38
52 39
52 41
52 43
52 44
52 45
52 46
52 51
53 1
53 2
53 6
53 7
53 8
53 10
53 13
53 14
53 19
53 20
53 22
53 23
53 24
53 25
53 27
53 28
53 30
53 36
53 38
53 39
53 41
53 43
53 45
53 46
53 52
54 1
54 3
54 4
54 5
54 9
54 11
54 12
54 15
54 16
54 17
54 18
54 21
54 26
54 29
54 31
54 32
54 33
54 35
54 37
54 40
54 42
54 44
54 47
54 48
54 49
54 50
55 1
55 2
55 5
55 6
55 7
55 8
55 10
55 12
55 13
55 14
55 16
55 19
55 20
55 23
55 24
55 25
55 27
55 28
55 30
55 31
55 32
55 33
55 35
55 37
55 38
55 39
55 41
55 43
55 44
55 45
55 46
55 47
55 48
55 51
55 52
55 53
56 1
56 2
56 6
56 7
56 8
56 10
56 13
56 19
56 20
56 22
56 23
56 24
56 25
56 27
56 28
56 30
56 31
56 36
56 38
56 39
56 41
56 43
56 44
56 45
56 46
56 52
56 53
56 55
57 1
57 2
57 5
57 6
57 7
57 8
57 10
57 12
57 13
57 14
57 16
57 19
57 20
57 23
57 24
57 25
57 27
57 28
57 30
57 31
57 32
57 33
57 35
57 37
57 38
57 39
57 41
57 43
57 44
57 45
57 46
57 47
57 48
57 51
57 52
57 53
57 55
57 56
58 1
58 2
58 6
58 7
58 8
58 10
58 13
58 14
58 19
58 20
58 22
58 23
58 24
58 25
58 27
58 28
58 30
58 36
58 38
58 39
58 41
58 43
58 45
58 46
58 52
58 53
58 55
58 56
58 57
59 3
59 4
59 5
59 9
59 11
59 12
59 15
59 16
59 17
59 18
59 21
59 26
59 29
59 32
59 33
59 34
59 35
59 37
59 40
59 42
59 48
59 49
59 50
59 54
60 1
60 2
60 6
60 7
60 8
60 10
60 13
60 14
60 19
60 20
60 22
60 23
60 24
60 25
60 27
60 28
60 30
60 31
60 36
60 38
60 39
60 41
60 43
60 44
60 45
60 46
60 52
60 53
60 55
60 56
60 57
60 58
61 2
61 6
61 7
61 8
61 10
61 13
61 14
61 19
61 20
61 22
61 23
61 24
61 25
61 27
61 28
61 30
61 36
61 38
61 39
61 41
61 43
61 45
61 46
61 52
61 53
61 56
61 58
61 60
62 1
62 2
62 6
62 7
62 8
62 10
62 12
62 13
62 14
62 16
62 19
62 20
62 22
62 23
62 24
62 25
62 27
62 28
62 30
62 31
62 32
62 33
62 34
62 35
62 36
62 37
62 38
62 39
62 41
62 43
62 44
62 45
62 46
62 47
62 51
62 52
62 53
62 55
62 56
62 57
62 58
62 60
62 61
63 3
63 4
63 5
63 9
63 11
63 12
63 15
63 16
63 17
63 18
63 21
63 26
63 29
63 32
63 33
63 34
63 35
63 37
63 39
63 40
63 42
63 48
63 49
63 50
63 51
63 54
63 59
64 1
64 2
64 6
64 7
64 8
64 10
64 12
64 13
64 14
64 16
64 19
64 20
64 22
64 23
64 24
64 25
64 27
64 28
64 30
64 31
64 32
64 33
64 36
64 37
64 38
64 39
64 41
64 43
64 44
64 45
64 46
64 47
64 51
64 52
64 53
64 55
64 56
64 57
64 58
64 60
64 61
64 62
65 1
65 2
65 3
65 5
65 7
65 8
65 10
65 11
65 12
65 14
65 16
65 19
65 20
65 24
65 25
65 27
65 28
65 30
65 31
65 32
65 33
65 34
65 35
65 37
65 39
65 42
65 43
65 44
65 45
65 46
65 47
65 48
65 50
65 51
65 52
65 53
65 55
65 57
65 58
65 62
65 63
65 64
66 1
66 2
66 6
66 7
66 8
66 10
66 12
66 13
66 14
66 16
66 19
66 20
66 22
66 23
66 24
66 25
66 27
66 28
66 30
66 31
66 32
66 33
66 36
66 38
66 39
66 41
66 43
66 44
66 45
66 46
66 51
66 52
66 53
66 55
66 56
66 57
66 58
66 60
66 61
66 62
66 64
66 65
67 1
67 2
67 6
67 7
67 8
67 10
67 12
67 13
67 14
67 16
67 19
67 20
67 23
67 24
67 25
67 27
67 28
67 30
67 31
67 32
67 33
67 36
67 37
67 38
67 39
67 41
67 43
67 44
67 45
67 46
67 47
67 51
67 52
67 53
67 55
67 56
67 57
67 58
67 60
67 61
67 62
67 64
67 65
67 66
68 1
68 2
68 6
68 7
68 8
68 10
68 12
68 13
68 14
68 16
68 19
68 20
68 22
68 23
68 24
68 25
68 27
68 28
68 30
68 31
68 32
68 33
68 34
68 35
68 36
68 37
68 38
68 39
68 41
68 43
68 44
68 45
68 46
68 47
68 51
68 52
68 53
68 55
68 56
68 57
68 58
68 60
68 61
68 62
68 64
68 65
68 66
68 67
69 1
69 2
69 6
69 7
69 8
69 10
69 13
69 14
69 16
69 19
69 20
69 22
69 23
69 24
69 25
69 27
69 28
69 30
69 31
69 33
69 36
69 38
69 39
69 41
69 43
69 44
69 45
69 46
69 51
69 52
69 53
69 55
69 56
69 57
69 58
69 60
69 61
69 62
69 64
69 65
69 66
69 67
69 68
70 1
70 2
70 6
70 7
70 8
70 10
70 12
70 13
70 14
70 16
70 19
70 20
70 22
70 23
70 24
70 25
70 27
70 28
70 30
70 31
70 32
70 33
70 36
70 37
70 38
70 39
70 41
70 43
70 44
70 45
70 46
70 47
70 52
70 53
70 55
70 56
70 57
70 58
70 60
70 61
70 62
70 64
70 65
70 66
70 67
70 68
70 69
71 1
71 2
71 6
71 7
71 8
71 10
71 13
71 14
71 19
71 20
71 22
71 23
71 24
71 25
71 27
71 28
71 30
71 31
71 36
71 38
71 39
71 41
71 43
71 44
71 45
71 46
71 47
71 52
71 53
71 55
71 56
71 57
71 58
71 60
71 61
71 62
71 64
71 66
71 67
71 68
71 69
71 70
72 1
72 2
72 5
72 6
72 8
72 12
72 13
72 15
72 16
72 19
72 23
72 27
72 28
72 29
72 31
72 32
72 33
72 35
72 37
72 39
72 43
72 44
72 47
72 48
72 52
72 54
72 55
72 56
72 57
72 60
72 62
72 64
72 65
72 66
72 67
72 68
72 70
72 71
73 1
73 2
73 5
73 6
73 7
73 8
73 10
73 12
73 13
73 14
73 16
73 19
73 20
73 22
73 23
73 24
73 25
73 27
73 28
73 30
73 31
73 32
73 33
73 34
73 35
73 36
73 37
73 38
73 39
73 41
73 43
73 44
73 45
73 46
73 47
73 51
73 52
73 53
73 55
73 56
73 57
73 58
73 60
73 61
73 62
73 64
73 65
73 66
73 67
73 68
73 69
73 70
73 71
73 72
74 1
74 2
74 3
74 5
74 6
74 7
74 8
74 10
74 12
74 13
74 14
74 16
74 19
74 20
74 22
74 23
74 24
74 25
74 27
74 28
74 30
74 31
74 32
74 33
74 34
74 35
74 36
74 37
74 38
74 39
74 41
74 43
74 44
74 45
74 46
74 47
74 48
74 51
74 52
74 53
74 55
74 57
74 58
74 60
74 61
74 62
74 63
74 64
74 65
74 66
74 67
74 68
74 69
74 70
74 71
74 72
74 73
75 1
75 2
75 6
75 7
75 8
75 10
75 13
75 14
75 19
75 20
75 22
75 23
75 24
75 25
75 27
75 28
75 30
75 31
75 33
75 36
75 38
75 39
75 41
75 43
75 44
75 45
75 46
75 52
75 53
75 55
75 56
75 57
75 58
75 60
75 61
75 62
75 64
75 65
75 66
75 67
75 68
75 69
75 70
75 71
75 72
75 73
75 74
76 1
76 2
76 6
76 7
76 8
76 10
76 12
76 13
76 14
76 16
76 19
76 20
76 22
76 23
76 24
76 25
76 27
76 28
76 30
76 31
76 32
76 33
76 34
76 35
76 36
76 37
76 38
76 39
76 41
76 43
76 44
76 45
76 46
76 47
76 51
76 52
76 53
76 55
76 56
76 57
76 58
76 60
76 61
76 62
76 64
76 65
76 66
76 67
76 68
76 69
76 70
76 71
76 72
76 73
76 74
76 75
77 1
77 3
77 4
77 5
77 9
77 11
77 12
77 15
77 16
77 17
77 18
77 21
77 26
77 29
77 31
77 32
77 33
77 35
77 37
77 40
77 42
77 44
77 47
77 48
77 49
77 50
77 54
77 59
77 63
77 72
78 1
78 2
78 3
78 5
78 6
78 7
78 8
78 10
78 12
78 13
78 14
78 16
78 19
78 20
78 22
78 23
78 24
78 25
78 27
78 28
78 30
78 31
78 32
78 33
78 34
78 35
78 36
78 37
78 38
78 39
78 41
78 43
78 44
78 45
78 46
78 47
78 48
78 51
78 52
78 53
78 55
78 57
78 58
78 60
78 61
78 62
78 63
78 64
78 65
78 66
78 67
78 68
78 69
78 70
78 71
78 72
78 73
78 74
78 75
78 76
79 1
79 2
79 3
79 5
79 6
79 7
79 8
79 10
79 12
79 13
79 14
79 16
79 19
79 20
79 22
79 23
79 24
79 25
79 27
79 28
79 30
79 31
79 32
79 33
79 34
79 35
79 36
79 37
79 38
79 39
79 41
79 43
79 44
79 45
79 46
79 47
79 48
79 51
79 52
79 53
79 55
79 56
79 57
79 58
79 60
79 61
79 62
79 64
79 65
79 66
79 67
79 68
79 69
79 70
79 71
79 72
79 73
79 74
79 75
79 76
79 78
80 1
80 2
80 3
80 5
80 6
80 7
80 8
80 10
80 12
80 13
80 14
80 15
80 16
80 19
80 20
80 23
80 24
80 25
80 27
80 28
80 29
80 30
80 31
80 32
80 33
80 34
80 35
80 37
80 38
80 39
80 41
80 43
80 44
80 45
80 46
80 47
80 48
80 51
80 52
80 53
80 54
80 55
80 56
80 57
80 58
80 60
80 62
80 64
80 65
80 66
80 67
80 68
80 69
80 70
80 71
80 72
80 73
80 74
80 75
80 76
80 77
80 78
80 79
81 3
81 4
81 5
81 9
81 11
81 12
81 15
81 16
81 17
81 18
81 21
81 26
81 29
81 32
81 33
81 34
81 35
81 37
81 40
81 42
81 47
81 48
81 49
81 50
81 51
81 54
81 59
81 63
81 65
81 77
82 2
82 6
82 7
82 8
82 10
82 13
82 14
82 19
82 20
82 22
82 23
82 24
82 25
82 27
82 28
82 30
82 36
82 38
82 39
82 41
82 43
82 45
82 46
82 52
82 53
82 56
82 58
82 60
82 61
82 62
82 64
82 66
82 67
82 68
82 69
82 70
82 71
82 73
82 74
82 75
82 76
82 78
82 79
82 80
83 1
83 2
83 6
83 7
83 8
83 10
83 13
83 14
83 16
83 19
83 20
83 22
83 23
83 24
83 25
83 27
83 28
83 30
83 31
83 33
83 36
83 38
83 39
83 41
83 43
83 45
83 46
83 51
83 52
83 53
83 55
83 56
83 57
83 58
83 60
83 61
83 62
83 64
83 65
83 66
83 67
83 68
83 69
83 70
83 71
83 73
83 74
83 75
83 76
83 78
83 79
83 80
83 82
84 1
84 2
84 6
84 7
84 8
84 10
84 13
84 14
84 19
84 20
84 22
84 23
84 24
84 25
84 27
84 28
84 30
84 31
84 36
84 38
84 39
84 41
84 43
84 44
84 45
84 46
84 52
84 53
84 55
84 56
84 57
84 58
84 60
84 61
84 62
84 64
84 66
84 67
84 68
84 69
84 70
84 71
84 72
84 73
84 74
84 75
84 76
84 78
84 79
84 80
84 82
84 83
85 3
85 4
85 5
85 9
85 11
85 15
85 16
85 17
85 18
85 21
85 26
85 29
85 32
85 33
85 34
85 35
85 40
85 42
85 48
85 49
85 50
85 54
85 59
85 63
85 65
85 77
85 81
86 2
86 6
86 7
86 8
86 10
86 13
86 14
86 19
86 20
86 22
86 23
86 24
86 25
86 27
86 28
86 30
86 36
86 38
86 39
86 41
86 43
86 45
86 46
86 52
86 53
86 56
86 58
86 60
86 61
86 62
86 64
86 66
86 67
86 68
86 69
86 70
86 71
86 73
86 74
86 75
86 76
86 78
86 79
86 82
86 83
86 84
87 1
87 3
87 4
87 5
87 8
87 9
87 11
87 12
87 15
87 16
87 17
87 18
87 19
87 21
87 26
87 27
87 28
87 29
87 31
87 32
87 33
87 34
87 35
87 37
87 39
87 40
87 42
87 43
87 44
87 47
87 48
87 49
87 50
87 51
87 54
87 55
87 57
87 59
87 62
87 63
87 65
87 68
87 72
87 73
87 74
87 76
87 77
87 78
87 79
87 80
87 81
87 85
88 1
88 2
88 6
88 7
88 8
88 10
88 12
88 13
88 14
88 16
88 19
88 20
88 22
88 23
88 24
88 25
88 27
88 28
88 30
88 31
88 32
88 33
88 34
88 35
88 36
88 37
88 38
88 39
88 41
88 43
88 44
88 45
88 46
88 47
88 51
88 52
88 53
88 55
88 56
88 57
88 58
88 60
88 61
88 62
88 64
88 65
88 66
88 67
88 68
88 69
88 70
88 71
88 72
88 73
88 74
88 75
88 76
88 78
88 79
88 80
88 82
88 83
88 84
88 86
88 87
89 1
89 2
89 6
89 7
89 8
89 10
89 13
89 14
89 19
89 20
89 22
89 23
89 24
89 25
89 27
89 28
89 30
89 31
89 36
89 38
89 39
89 41
89 43
89 44
89 45
89 46
89 47
89 52
89 53
89 55
89 56
89 57
89 58
89 60
89 61
89 62
89 64
89 66
89 67
89 68
89 69
89 70
89 71
89 72
89 73
89 74
89 75
89 76
89 78
89 79
89 80
89 82
89 83
89 84
89 86
89 88
90 1
90 2
90 3
90 5
90 6
90 7
90 8
90 10
90 12
90 13
90 14
90 16
90 19
90 20
90 23
90 24
90 25
90 27
90 28
90 30
90 31
90 32
90 33
90 34
90 35
90 36
90 37
90 38
90 39
90 41
90 43
90 44
90 45
90 46
90 47
90 48
90 51
90 52
90 53
90 55
90 56
90 57
90 58
90 60
90 61
90 62
90 64
90 65
90 66
90 67
90 68
90 69
90 70
90 71
90 72
90 73
90 74
90 75
90 76
90 78
90 79
90 80
90 82
90 83
90 84
90 86
90 87
90 88
90 89
91 1
91 2
91 6
91 7
91 8
91 10
91 12
91 13
91 14
91 16
91 19
91 20
91 22
91 23
91 24
91 25
91 27
91 28
91 30
91 31
91 32
91 33
91 34
91 35
91 36
91 37
91 38
91 39
91 41
91 43
91 44
91 45
91 46
91 47
91 51
91 52
91 53
91 55
91 56
91 57
91 58
91 60
91 61
91 62
91 64
91 65
91 66
91 67
91 68
91 69
91 70
91 71
91 72
91 73
91 74
91 75
91 76
91 78
91 79
91 80
91 82
91 83
91 84
91 86
91 87
91 88
91 89
91 90
92 1
92 2
92 6
92 7
92 8
92 10
92 12
92 13
92 14
92 16
92 19
92 20
92 22
92 23
92 24
92 25
92 27
92 28
92 30
92 31
92 32
92 33
92 34
92 35
92 36
92 37
92 38
92 39
92 41
92 43
92 44
92 45
92 46
92 47
92 51
92 52
92 53
92 55
92 56
92 57
92 58
92 60
92 61
92 62
92 64
92 65
92 66
92 67
92 68
92 69
92 70
92 71
92 72
92 73
92 74
92 75
92 76
92 78
92 79
92 80
92 82
92 83
92 84
92 86
92 87
92 88
92 89
92 90
92 91
93 1
93 2
93 6
93 7
93 8
93 10
93 13
93 14
93 19
93 20
93 22
93 23
93 24
93 25
93 27
93 28
93 30
93 31
93 36
93 38
93 39
93 41
93 43
93 44
93 45
93 46
93 52
93 53
93 55
93 56
93 57
93 58
93 60
93 61
93 62
93 64
93 65
93 66
93 67
93 68
93 69
93 70
93 71
93 73
93 74
93 75
93 76
93 78
93 79
93 80
93 82
93 83
93 84
93 86
93 88
93 89
93 90
93 91
93 92
94 1
94 2
94 6
94 7
94 8
94 10
94 13
94 14
94 19
94 20
94 22
94 23
94 24
94 25
94 27
94 28
94 30
94 33
94 36
94 38
94 39
94 41
94 43
94 45
94 46
94 51
94 52
94 53
94 55
94 56
94 57
94 58
94 60
94 61
94 62
94 64
94 65
94 66
94 67
94 68
94 69
94 70
94 71
94 73
94 74
94 75
94 76
94 78
94 79
94 80
94 82
94 83
94 84
94 86
94 88
94 89
94 90
94 91
94 92
94 93
95 1
95 2
95 6
95 7
95 8
95 10
95 13
95 20
95 22
95 23
95 24
95 25
95 27
95 28
95 30
95 31
95 36
95 38
95 41
95 43
95 44
95 45
95 46
95 52
95 53
95 55
95 56
95 57
95 58
95 60
95 61
95 62
95 64
95 66
95 67
95 68
95 69
95 70
95 71
95 72
95 73
95 75
95 76
95 79
95 80
95 82
95 83
95 84
95 86
95 88
95 89
95 90
95 91
95 92
95 93
95 94
96 1
96 2
96 6
96 7
96 8
96 10
96 13
96 14
96 19
96 20
96 22
96 23
96 24
96 25
96 27
96 28
96 30
96 31
96 36
96 38
96 39
96 41
96 43
96 44
96 45
96 46
96 52
96 53
96 55
96 56
96 57
96 58
96 60
96 61
96 62
96 64
96 66
96 67
96 68
96 69
96 70
96 71
96 72
96 73
96 74
96 75
96 76
96 78
96 79
96 80
96 82
96 83
96 84
96 86
96 88
96 89
96 90
96 91
96 92
96 93
96 94
96 95
97 1
97 2
97 3
97 5
97 7
97 8
97 10
97 11
97 12
97 14
97 16
97 19
97 20
97 24
97 25
97 27
97 28
97 30
97 31
97 32
97 33
97 34
97 35
97 37
97 38
97 39
97 41
97 42
97 43
97 44
97 45
97 46
97 47
97 48
97 50
97 51
97 52
97 53
97 55
97 57
97 58
97 62
97 63
97 64
97 65
97 66
97 67
97 68
97 69
97 70
97 71
97 72
97 73
97 74
97 75
97 76
97 78
97 79
97 80
97 81
97 82
97 83
97 87
97 88
97 90
97 91
97 92
97 93
97 94
97 96
98 1
98 2
98 3
98 5
98 6
98 7
98 8
98 10
98 12
98 13
98 14
98 16
98 19
98 20
98 23
98 24
98 27
98 28
98 29
98 30
98 31
98 32
98 33
98 35
98 37
98 39
98 43
98 44
98 45
98 47
98 48
98 51
98 52
98 54
98 55
98 56
98 57
98 58
98 60
98 62
98 64
98 65
98 66
98 67
98 68
98 69
98 70
98 71
98 72
98 73
98 74
98 75
98 76
98 77
98 78
98 79
98 80
98 83
98 84
98 87
98 88
98 89
98 90
98 91
98 92
98 93
98 94
98 95
98 96
98 97
99 1
99 2
99 6
99 7
99 8
99 10
99 12
99 13
99 14
99 16
99 19
99 20
99 22
99 23
99 24
99 25
99 27
99 28
99 30
99 31
99 32
99 33
99 34
99 35
99 36
99 38
99 39
99 41
99 43
99 44
99 45
99 46
99 51
99 52
99 53
99 55
99 56
99 57
99 58
99 60
99 61
99 62
99 64
99 65
99 66
99 67
99 68
99 69
99 70
99 71
99 72
99 73
99 74
99 75
99 76
99 78
99 79
99 80
99 82
99 83
99 84
99 86
99 88
99 89
99 90
99 91
99 92
99 93
99 94
99 95
99 96
99 97
99 98
100 1
100 2
100 5
100 6
100 7
100 8
100 10
100 12
100 13
100 14
100 16
100 19
100 20
100 22
100 23
100 24
100 25
100 27
100 28
100 30
100 31
100 32
100 33
100 34
100 35
100 36
100 37
100 38
100 39
100 41
100 43
100 44
100 45
100 46
100 47
100 51
100 52
100 53
100 55
100 56
100 57
100 58
100 60
100 61
100 62
100 64
100 65
100 66
100 67
100 68
100 69
100 70
100 71
100 72
100 73
100 74
100 75
100 76
100 78
100 79
100 80
100 82
100 83
100 84
100 86
100 87
100 88
100 89
100 90
100 91
100 92
100 93
100 94
100 95
100 96
100 97
100 98
100 99
101 1
101 2
101 5
101 6
101 7
101 8
101 10
101 12
101 13
101 14
101 16
101 19
101 20
101 22
101 23
101 24
101 25
101 27
101 28
101 30
101 31
101 32
101 33
101 34
101 35
101 36
101 37
101 38
101 39
101 41
101 43
101 44
101 45
101 46
101 47
101 51
101 52
101 53
101 55
101 57
101 58
101 60
101 61
101 62
101 64
101 65
101 66
101 67
101 68
101 69
101 70
101 71
101 72
101 73
101 74
101 75
101 76
101 78
101 79
101 80
101 82
101 83
101 84
101 86
101 87
101 88
101 89
101 90
101 91
101 92
101 93
101 94
101 96
101 97
101 98
101 99
101 100
102 1
102 2
102 3
102 5
102 6
102 7
102 8
102 10
102 12
102 13
102 14
102 16
102 19
102 20
102 23
102 24
102 25
102 27
102 28
102 29
102 30
102 31
102 32
102 33
102 34
102 35
102 37
102 38
102 39
102 41
102 43
102 44
102 45
102 46
102 47
102 48
102 51
102 52
102 53
102 54
102 55
102 56
102 57
102 58
102 60
102 61
102 62
102 64
102 65
102 66
102 67
102 68
102 69
102 70
102 71
102 72
102 73
102 74
102 75
102 76
102 77
102 78
102 79
102 80
102 82
102 83
102 84
102 87
102 88
102 89
102 90
102 91
102 92
102 93
102 94
102 96
102 97
102 98
102 99
102 100
102 101
103 1
103 2
103 5
103 6
103 7
103 8
103 10
103 12
103 13
103 14
103 16
103 19
103 20
103 23
103 24
103 27
103 28
103 29
103 30
103 31
103 32
103 33
103 35
103 37
103 39
103 41
103 43
103 44
103 45
103 47
103 48
103 51
103 52
103 53
103 54
103 55
103 56
103 57
103 60
103 62
103 64
103 65
103 66
103 67
103 68
103 69
103 70
103 71
103 72
103 73
103 74
103 75
103 76
103 78
103 79
103 80
103 83
103 84
103 87
103 88
103 89
103 90
103 91
103 92
103 93
103 94
103 95
103 96
103 97
103 98
103 99
103 100
103 101
103 102
104 3
104 4
104 5
104 9
104 11
104 12
104 15
104 16
104 17
104 18
104 21
104 26
104 29
104 32
104 33
104 35
104 37
104 40
104 42
104 47
104 48
104 49
104 50
104 54
104 59
104 63
104 77
104 81
104 85
104 87
105 1
105 2
105 3
105 5
105 6
105 7
105 8
105 10
105 12
105 13
105 14
105 16
105 19
105 20
105 23
105 24
105 25
105 27
105 28
105 30
105 31
105 32
105 33
105 34
105 35
105 37
105 38
105 39
105 41
105 42
105 43
105 44
105 45
105 46
105 47
105 48
105 50
105 51
105 52
105 53
105 55
105 57
105 58
105 61
105 62
105 63
105 64
105 65
105 66
105 67
105 68
105 69
105 70
105 71
105 72
105 73
105 74
105 75
105 76
105 78
105 79
105 80
105 81
105 82
105 83
105 84
105 86
105 87
105 88
105 89
105 90
105 91
105 92
105 93
105 94
105 96
105 97
105 98
105 99
105 100
105 101
105 102
105 103
106 1
106 2
106 6
106 8
106 10
106 13
106 20
106 23
106 24
106 25
106 27
106 28
106 30
106 31
106 36
106 38
106 41
106 43
106 44
106 45
106 46
106 52
106 53
106 55
106 56
106 57
106 58
106 60
106 61
106 62
106 64
106 66
106 67
106 68
106 69
106 70
106 71
106 72
106 75
106 76
106 79
106 82
106 84
106 86
106 88
106 89
106 91
106 92
106 93
106 94
106 95
106 96
106 98
106 99
106 103
107 1
107 2
107 6
107 7
107 8
107 10
107 12
107 13
107 14
107 16
107 19
107 20
107 22
107 23
107 24
107 25
107 27
107 28
107 30
107 31
107 32
107 33
107 36
107 38
107 39
107 41
107 43
107 44
107 45
107 46
107 51
107 52
107 53
107 55
107 56
107 57
107 58
107 60
107 61
107 62
107 64
107 65
107 66
107 67
107 68
107 69
107 70
107 71
107 72
107 73
107 74
107 75
107 76
107 78
107 79
107 80
107 82
107 83
107 84
107 86
107 88
107 89
107 90
107 91
107 92
107 93
107 94
107 95
107 96
107 97
107 98
107 99
107 100
107 101
107 102
107 103
107 105
107 106
108 1
108 2
108 3
108 5
108 6
108 7
108 8
108 10
108 12
108 13
108 14
108 16
108 19
108 20
108 22
108 23
108 24
108 25
108 27
108 28
108 30
108 31
108 32
108 33
108 34
108 35
108 36
108 37
108 38
108 39
108 41
108 43
108 44
108 45
108 46
108 47
108 48
108 51
108 52
108 53
108 55
108 56
108 57
108 58
108 60
108 61
108 62
108 64
108 65
108 66
108 67
108 68
108 69
108 70
108 71
108 72
108 73
108 74
108 75
108 76
108 78
108 79
108 80
108 82
108 83
108 84
108 86
108 87
108 88
108 89
108 90
108 91
108 92
108 93
108 94
108 95
108 96
108 97
108 98
108 99
108 100
108 101
108 102
108 103
108 105
108 106
108 107
109 1
109 2
109 3
109 5
109 6
109 7
109 8
109 10
109 12
109 13
109 14
109 16
109 19
109 20
109 23
109 24
109 25
109 27
109 28
109 29
109 30
109 31
109 32
109 33
109 34
109 35
109 37
109 38
109 39
109 41
109 43
109 44
109 45
109 46
109 47
109 48
109 51
109 52
109 53
109 54
109 55
109 56
109 57
109 58
109 60
109 61
109 62
109 64
109 65
109 66
109 67
109 68
109 69
109 70
109 71
109 72
109 73
109 74
109 75
109 76
109 77
109 78
109 79
109 80
109 82
109 83
109 84
109 87
109 88
109 89
109 90
109 91
109 92
109 93
109 94
109 95
109 96
109 97
109 98
109 99
109 100
109 101
109 102
109 103
109 105
109 106
109 107
109 108
110 1
110 2
110 3
110 5
110 6
110 7
110 8
110 10
110 12
110 13
110 14
110 16
110 19
110 20
110 22
110 23
110 24
110 25
110 27
110 28
110 30
110 31
110 32
110 33
110 34
110 35
110 36
110 37
110 38
110 39
110 41
110 43
110 44
110 45
110 46
110 47
110 48
110 51
110 52
110 53
110 55
110 56
110 57
110 58
110 60
110 61
110 62
110 64
110 65
110 66
110 67
110 68
110 69
110 70
110 71
110 72
110 73
110 74
110 75
110 76
110 78
110 79
110 80
110 82
110 83
110 84
110 86
110 87
110 88
110 89
110 90
110 91
110 92
110 93
110 94
110 95
110 96
110 97
110 98
110 99
110 100
110 101
110 102
110 103
110 105
110 106
110 107
110 108
110 109
111 1
111 2
111 6
111 7
111 8
111 10
111 13
111 14
111 19
111 20
111 22
111 23
111 24
111 25
111 27
111 28
111 30
111 31
111 36
111 38
111 39
111 41
111 43
111 44
111 45
111 46
111 52
111 53
111 55
111 56
111 57
111 58
111 60
111 61
111 62
111 64
111 66
111 67
111 68
111 69
111 70
111 71
111 73
111 74
111 75
111 76
111 78
111 79
111 80
111 82
111 83
111 84
111 86
111 88
111 89
111 90
111 91
111 92
111 93
111 94
111 95
111 96
111 98
111 99
111 100
111 101
111 102
111 103
111 105
111 106
111 107
111 108
111 109
111 110
112 1
112 3
112 4
112 5
112 9
112 12
112 15
112 16
112 18
112 21
112 26
112 27
112 29
112 31
112 32
112 33
112 35
112 37
112 40
112 44
112 47
112 48
112 49
112 54
112 55
112 57
112 59
112 67
112 72
112 74
112 77
112 79
112 80
112 81
112 87
112 90
112 98
112 102
112 103
112 104
112 105
112 108
112 109
112 110
113 1
113 2
113 6
113 7
113 8
113 10
113 13
113 14
113 19
113 20
113 22
113 23
113 24
113 25
113 27
113 28
113 30
113 31
113 36
113 38
113 39
113 41
113 43
113 44
113 45
113 46
113 52
113 53
113 55
113 56
113 57
113 58
113 60
113 61
113 62
113 64
113 65
113 66
113 67
113 68
113 69
113 70
113 71
113 73
113 74
113 75
113 76
113 78
113 79
113 80
113 82
113 83
113 84
113 86
113 88
113 89
113 90
113 91
113 92
113 93
113 94
113 95
113 96
113 97
113 98
113 99
113 100
113 101
113 102
113 103
113 105
113 106
113 107
113 108
113 109
113 110
113 111
114 1
114 2
114 3
114 5
114 6
114 7
114 8
114 10
114 12
114 13
114 14
114 16
114 19
114 20
114 22
114 23
114 24
114 25
114 27
114 28
114 30
114 31
114 32
114 33
114 34
114 35
114 36
114 37
114 38
114 39
114 41
114 43
114 44
114 45
114 46
114 47
114 48
114 51
114 52
114 53
114 55
114 56
114 57
114 58
114 60
114 61
114 62
114 64
114 65
114 66
114 67
114 68
114 69
114 70
114 71
114 72
114 73
114 74
114 75
114 76
114 78
114 79
114 80
114 82
114 83
114 84
114 86
114 87
114 88
114 89
114 90
114 91
114 92
114 93
114 94
114 95
114 96
114 97
114 98
114 99
114 100
114 101
114 102
114 103
114 105
114 107
114 108
114 109
114 110
114 111
114 113
115 1
115 2
115 6
115 7
115 8
115 10
115 12
115 13
115 14
115 16
115 19
115 20
115 22
115 23
115 24
115 25
115 27
115 28
115 30
115 31
115 33
115 36
115 38
115 39
115 41
115 43
115 44
115 45
115 46
115 51
115 52
115 53
115 55
115 56
115 57
115 58
115 60
115 61
115 62
115 64
115 65
115 66
115 67
115 68
115 69
115 70
115 71
115 72
115 73
115 74
115 75
115 76
115 78
115 79
115 80
115 82
115 83
115 84
115 86
115 88
115 89
115 90
115 91
115 92
115 93
115 94
115 95
115 96
115 97
115 98
115 99
115 100
115 101
115 102
115 103
115 105
115 106
115 107
115 108
115 109
115 110
115 111
115 113
115 114
116 1
116 2
116 6
116 7
116 8
116 10
116 13
116 14
116 19
116 20
116 22
116 23
116 24
116 25
116 27
116 28
116 30
116 36
116 38
116 39
116 41
116 43
116 45
116 46
116 52
116 53
116 55
116 56
116 57
116 58
116 60
116 61
116 62
116 64
116 65
116 66
116 67
116 68
116 69
116 70
116 71
116 73
116 74
116 75
116 76
116 78
116 79
116 80
116 82
116 83
116 84
116 86
116 88
116 89
116 90
116 91
116 92
116 93
116 94
116 95
116 96
116 97
116 99
116 100
116 101
116 102
116 105
116 106
116 107
116 108
116 109
116 110
116 111
116 113
116 114
116 115
117 1
117 2
117 3
117 5
117 6
117 7
117 8
117 9
117 10
117 12
117 13
117 14
117 16
117 19
117 20
117 23
117 24
117 25
117 27
117 28
117 30
117 31
117 32
117 33
117 34
117 35
117 37
117 38
117 39
117 41
117 43
117 44
117 45
117 46
117 47
117 48
117 50
117 51
117 52
117 53
117 55
117 57
117 58
117 61
117 62
117 63
117 64
117 65
117 66
117 67
117 68
117 69
117 70
117 71
117 72
117 73
117 74
117 75
117 76
117 78
117 79
117 80
117 81
117 82
117 83
117 84
117 86
117 87
117 88
117 89
117 90
117 91
117 92
117 93
117 94
117 96
117 97
117 98
117 99
117 100
117 101
117 102
117 103
117 105
117 107
117 108
117 109
117 110
117 111
117 112
117 113
117 114
117 115
117 116
118 2
118 6
118 7
118 8
118 10
118 13
118 14
118 19
118 20
118 22
118 23
118 24
118 25
118 27
118 28
118 30
118 36
118 38
118 39
118 41
118 43
118 45
118 46
118 52
118 53
118 56
118 58
118 60
118 61
118 62
118 64
118 66
118 67
118 68
118 69
118 70
118 71
118 73
118 74
118 75
118 76
118 78
118 79
118 82
118 83
118 84
118 86
118 88
118 89
118 90
118 91
118 92
118 93
118 94
118 95
118 96
118 99
118 100
118 101
118 105
118 107
118 108
118 110
118 111
118 113
118 114
118 115
118 116
118 117
119 1
119 2
119 5
119 6
119 8
119 12
119 13
119 16
119 19
119 23
119 27
119 28
119 29
119 31
119 32
119 33
119 35
119 37
119 39
119 43
119 44
119 45
119 47
119 48
119 52
119 54
119 55
119 56
119 57
119 60
119 62
119 64
119 65
119 66
119 67
119 68
119 70
119 71
119 72
119 73
119 74
119 75
119 76
119 77
119 78
119 79
119 80
119 84
119 87
119 88
119 89
119 90
119 91
119 92
119 95
119 96
119 97
119 98
119 99
119 100
119 101
119 102
119 103
119 105
119 106
119 107
119 108
119 109
119 110
119 111
119 112
119 114
119 115
119 117
120 1
120 3
120 5
120 6
120 8
120 12
120 13
120 15
120 16
120 19
120 23
120 27
120 28
120 29
120 31
120 32
120 33
120 35
120 37
120 39
120 43
120 44
120 47
120 48
120 51
120 52
120 54
120 55
120 56
120 57
120 60
120 62
120 64
120 65
120 66
120 67
120 68
120 70
120 71
120 72
120 73
120 74
120 75
120 76
120 77
120 78
120 79
120 80
120 87
120 88
120 89
120 90
120 91
120 92
120 95
120 96
120 97
120 98
120 99
120 100
120 101
120 102
120 103
120 105
120 107
120 108
120 109
120 110
120 112
120 114
120 117
120 119
121 1
121 3
121 5
121 7
121 8
121 9
121 11
121 12
121 14
121 16
121 17
121 19
121 21
121 27
121 28
121 31
121 32
121 33
121 34
121 35
121 37
121 39
121 42
121 43
121 47
121 48
121 49
121 50
121 51
121 52
121 59
121 62
121 63
121 65
121 66
121 68
121 73
121 74
121 76
121 78
121 79
121 80
121 81
121 85
121 87
121 88
121 90
121 91
121 92
121 97
121 98
121 99
121 100
121 101
121 102
121 105
121 108
121 109
121 110
121 114
121 115
121 117
121 120
122 1
122 2
122 6
122 7
122 8
122 10
122 12
122 13
122 14
122 16
122 19
122 20
122 22
122 23
122 24
122 25
122 27
122 28
122 30
122 31
122 32
122 33
122 36
122 37
122 38
122 39
122 41
122 43
122 44
122 45
122 46
122 47
122 52
122 53
122 55
122 56
122 57
122 58
122 60
122 61
122 62
122 64
122 65
122 66
122 67
122 68
122 69
122 70
122 71
122 72
122 73
122 74
122 75
122 76
122 78
122 79
122 80
122 82
122 83
122 84
122 86
122 88
122 89
122 90
122 91
122 92
122 93
122 94
122 95
122 96
122 97
122 98
122 99
122 100
122 101
122 102
122 103
122 105
122 106
122 107
122 108
122 109
122 110
122 111
122 113
122 114
122 115
122 116
122 117
122 118
122 119
122 120
123 1
123 2
123 6
123 7
123 8
123 10
123 12
123 13
123 14
123 16
123 19
123 20
123 22
123 23
123 24
123 25
123 27
123 28
123 30
123 31
123 32
123 33
123 36
123 38
123 39
123 41
123 43
123 44
123 45
123 46
123 51
123 52
123 53
123 55
123 56
123 57
123 58
123 60
123 61
123 62
123 64
123 65
123 66
123 67
123 68
123 69
123 70
123 71
123 72
123 73
123 74
123 75
123 76
123 78
123 79
123 80
123 82
123 83
123 84
123 86
123 88
123 89
123 90
123 91
123 92
123 93
123 94
123 95
123 96
123 97
123 98
123 99
123 100
123 101
123 102
123 103
123 105
123 106
123 107
123 108
123 109
123 110
123 111
123 113
123 114
123 115
123 116
123 117
123 118
123 119
123 120
123 122
124 3
124 4
124 5
124 9
124 11
124 12
124 15
124 16
124 17
124 18
124 21
124 26
124 29
124 32
124 33
124 35
124 37
124 40
124 42
124 47
124 48
124 49
124 50
124 54
124 59
124 63
124 77
124 81
124 85
124 87
124 104
124 112
125 1
125 2
125 3
125 5
125 6
125 7
125 8
125 10
125 12
125 13
125 14
125 16
125 19
125 20
125 22
125 23
125 24
125 25
125 27
125 28
125 30
125 31
125 32
125 33
125 34
125 35
125 36
125 37
125 38
125 39
125 41
125 43
125 44
125 45
125 46
125 47
125 48
125 51
125 52
125 53
125 55
125 57
125 58
125 61
125 62
125 63
125 64
125 65
125 66
125 67
125 68
125 69
125 70
125 71
125 72
125 73
125 74
125 75
125 76
125 78
125 79
125 80
125 81
125 82
125 83
125 84
125 86
125 87
125 88
125 89
125 90
125 91
125 92
125 93
125 94
125 96
125 97
125 98
125 99
125 100
125 101
125 102
125 103
125 105
125 107
125 108
125 109
125 110
125 111
125 113
125 114
125 115
125 116
125 117
125 118
125 119
125 120
125 121
125 122
125 123
126 1
126 2
126 6
126 7
126 8
126 10
126 12
126 13
126 14
126 16
126 19
126 20
126 22
126 23
126 24
126 25
126 27
126 28
126 30
126 31
126 33
126 36
126 38
126 39
126 41
126 43
126 44
126 45
126 46
126 51
126 52
126 53
126 55
126 56
126 57
126 58
126 60
126 61
126 62
126 64
126 65
126 66
126 67
126 68
126 69
126 70
126 71
126 72
126 73
126 74
126 75
126 76
126 78
126 79
126 80
126 82
126 83
126 84
126 86
126 88
126 89
126 90
126 91
126 92
126 93
126 94
126 95
126 96
126 97
126 98
126 99
126 100
126 101
126 102
126 103
126 105
126 106
126 107
126 108
126 109
126 110
126 111
126 113
126 114
126 115
126 116
126 117
126 118
126 119
126 120
126 122
126 123
126 125
127 1
127 2
127 6
127 7
127 8
127 10
127 13
127 14
127 19
127 20
127 22
127 23
127 24
127 25
127 27
127 28
127 30
127 31
127 36
127 38
127 39
127 41
127 43
127 44
127 45
127 46
127 52
127 53
127 55
127 56
127 57
127 58
127 60
127 61
127 62
127 64
127 65
127 66
127 67
127 68
127 69
127 70
127 71
127 72
127 73
127 74
127 75
127 76
127 78
127 79
127 80
127 82
127 83
127 84
127 86
127 88
127 89
127 90
127 91
127 92
127 93
127 94
127 95
127 96
127 97
127 98
127 99
127 100
127 101
127 102
127 103
127 105
127 106
127 107
127 108
127 109
127 110
127 111
127 113
127 114
127 115
127 116
127 117
127 118
127 119
127 120
127 122
127 123
127 125
127 126
128 1
128 2
128 5
128 6
128 7
128 8
128 10
128 12
128 13
128 14
128 16
128 19
128 20
128 22
128 23
128 24
128 25
128 27
128 28
128 30
128 31
128 32
128 33
128 34
128 35
128 36
128 37
128 38
128 39
128 41
128 43
128 44
128 45
128 46
128 47
128 48
128 51
128 52
128 53
128 55
128 56
128 57
128 58
128 60
128 61
128 62
128 64
128 65
128 66
128 67
128 68
128 69
128 70
128 71
128 72
128 73
128 74
128 75
128 76
128 78
128 79
128 80
128 82
128 83
128 84
128 86
128 87
128 88
128 89
128 90
128 91
128 92
128 93
128 94
128 95
128 96
128 97
128 98
128 99
128 100
128 101
128 102
128 103
128 105
128 106
128 107
128 108
128 109
128 110
128 111
128 113
128 114
128 115
128 116
128 117
128 118
128 119
128 120
128 121
128 122
128 123
128 125
128 126
128 127
73